p cnf 2642 2444
c ind 1275 1276 1277 1278 1279 1280 1281 1282 1283 1284 0
c ind 1285 1286 1287 1288 1289 1290 1291 1292 1293 1294 0
c ind 1295 1296 1297 1298 1299 1300 1301 1302 1303 1304 0
c ind 1305 1306 1307 1308 1309 913 914 915 916 917 0
c ind 918 919 920 921 922 923 924 925 926 927 0
c ind 928 929 930 931 932 933 934 935 936 937 0
c ind 938 939 940 941 942 943 944 945 946 947 0
c ind 948 949 950 951 952 953 954 955 956 957 0
c ind 958 959 960 961 962 963 964 965 966 967 0
c ind 968 969 970 971 972 973 974 975 976 977 0
c ind 978 979 980 981 982 983 984 985 986 987 0
c ind 988 989 990 991 992 993 994 995 996 997 0
c ind 998 999 1072 1073 1074 1075 1076 1077 1078 1079 0
c ind 1080 1081 1082 1083 1084 1085 1086 1087 1088 834 0
c ind 908 909 910 911 912 837 838 839 840 841 0
c ind 842 843 844 845 846 1089 847 1090 848 849 0
c ind 1091 850 1092 851 852 853 854 855 856 857 0
c ind 789 790 791 792 793 794 1093 1094 795 796 0
c ind 797 1095 798 799 1096 835 800 801 802 803 0
c ind 804 805 806 807 1097 808 809 768 769 770 0
c ind 1098 771 1099 772 1100 773 1101 774 775 776 0
c ind 777 778 779 780 781 782 783 784 785 1102 0
c ind 786 787 788 810 811 812 1103 1104 813 814 0
c ind 1105 815 1106 816 817 818 819 836 820 821 0
c ind 822 823 824 825 826 827 828 829 830 1043 0
c ind 1044 1107 1045 1108 1046 1109 1047 1048 1110 1049 0
c ind 1050 1051 1052 1053 1054 1055 1056 1057 1058 1059 0
c ind 1111 1060 1061 1062 1112 1063 1113 1064 1114 1115 0
c ind 1065 1066 1067 1068 1069 1070 1071 831 1000 1001 0
c ind 1002 1003 1004 1005 1116 1117 1006 1007 1008 1009 0
c ind 1010 1118 1011 1012 1013 1014 1015 1016 1017 1018 0
c ind 1019 1119 1020 1021 1022 1023 1024 1120 1121 1025 0
c ind 1026 1122 1027 1028 1123 1029 1030 1031 1032 1033 0
c ind 1034 1035 1036 1037 1038 1039 1040 1041 1042 1187 0
c ind 1188 1189 1190 1191 1192 1193 1194 1195 1196 1197 0
c ind 1198 1199 1200 1201 1202 1203 1204 1205 1206 1207 0
c ind 1208 1209 1210 1211 1212 1213 1214 832 1215 1216 0
c ind 1217 1218 1219 1220 1221 1222 1223 1224 1225 1226 0
c ind 1227 1228 1229 858 859 860 861 862 863 864 0
c ind 865 866 867 868 869 870 871 872 873 874 0
c ind 875 876 877 878 879 880 881 833 882 883 0
c ind 884 885 886 887 888 889 890 891 892 893 0
c ind 894 895 896 897 898 899 900 901 902 903 0
c ind 904 905 906 907 1230 1231 1232 1233 1234 1235 0
c ind 1236 1237 1238 1239 1240 1241 1242 1243 1244 1245 0
c ind 1246 1247 1248 1249 1250 1251 1252 1253 1254 1255 0
c ind 1256 1257 1258 1259 1260 1261 1262 1263 1264 1265 0
c ind 1266 1267 1268 1269 1270 1271 1272 1273 1274 0
614 -615 730 0
614 -615 642 0
-614 615 0
-642 -730 -614 0
615 -616 -630 639 -641 0
-615 641 0
-615 616 0
-615 630 0
-615 -639 0
616 -617 626 0
-616 617 0
-616 -626 0
617 618 622 -773 -822 0
-617 822 0
-617 -622 0
-617 773 0
-617 -618 0
619 823 618 824 825 0
-618 -619 0
-618 -825 0
-618 -823 0
-618 -824 0
619 620 -828 0
619 620 621 -829 0
-619 -620 0
-619 -621 828 0
-619 828 829 0
620 826 -827 0
-620 -826 0
-620 827 0
621 1046 1047 0
621 1046 1054 1055 0
-621 -1046 0
-621 -1047 -1054 0
-621 -1047 -1055 0
623 774 622 775 776 0
-622 -623 0
-622 -776 0
-622 -774 0
-622 -775 0
623 624 -779 0
623 624 625 -780 0
-623 -624 0
-623 -625 779 0
-623 779 780 0
624 777 -778 0
-624 -777 0
-624 778 0
625 785 786 0
625 785 814 815 0
-625 -785 0
-625 -786 -814 0
-625 -786 -815 0
-627 -789 626 0
-629 -789 626 0
-628 -789 626 0
-626 789 0
-626 627 628 629 0
627 -795 796 797 0
-627 795 0
-627 -797 0
-627 -796 0
628 795 798 799 0
-628 -795 0
-628 -799 0
-628 -798 0
629 -790 791 792 0
-629 790 0
-629 -792 0
-629 -791 0
630 631 634 -637 0
630 631 635 -637 0
-630 -631 0
-630 637 0
-634 -635 -630 0
-632 -633 631 -1205 0
-632 -633 631 -1206 0
-631 633 0
-631 632 0
-631 1205 1206 0
632 1208 1209 1210 1211 0
-632 -1211 0
-632 -1210 0
-632 -1208 0
-632 -1209 0
633 -1202 -1203 -1204 1207 0
-633 1204 0
-633 -1207 0
-633 1202 0
-633 1203 0
634 -1216 -1223 0
-634 1216 0
-634 1223 0
635 -636 -1224 1225 0
-635 1224 0
-635 -1225 0
-635 636 0
636 858 1227 -1228 -1229 0
-636 -858 0
-636 1229 0
-636 1228 0
-636 -1227 0
637 -638 -1231 -1260 -1289 0
-637 638 0
-637 1231 0
-637 1289 0
-637 1260 0
638 -880 -921 -950 -979 0
-638 979 0
-638 880 0
-638 950 0
-638 921 0
-640 -834 639 0
-639 834 0
-639 640 0
640 1030 1031 1032 0
-640 -1030 0
-640 -1032 0
-640 -1031 0
641 -831 833 0
641 -832 -836 0
641 -831 -832 0
641 833 -836 0
832 -833 -641 0
831 836 -641 0
642 -643 -672 -696 -721 0
-642 721 0
-642 643 0
-642 696 0
-642 672 0
643 -644 661 0
643 661 1547 0
-643 -661 0
-643 644 -1547 0
644 -645 -637 0
644 659 -637 0
637 -644 0
-644 645 -659 0
645 -646 -658 -1123 0
645 646 -647 -658 0
-645 658 0
-645 -646 1123 0
-645 646 647 0
646 875 -877 0
-646 -875 0
-646 877 0
647 -648 -1122 0
647 648 -649 0
-647 -648 1122 0
-647 648 649 0
648 1219 -1221 0
-648 -1219 0
-648 1221 0
649 650 631 657 0
649 650 631 -654 0
-631 -649 0
-649 -650 0
-649 654 -657 0
650 -652 834 -1195 0
650 651 834 1195 0
-650 -834 0
-650 652 -1195 0
-650 -651 1195 0
651 -1119 -616 0
-651 1119 0
616 -651 0
652 -653 1120 0
651 652 653 0
-652 -653 -1120 0
-651 -652 653 0
653 1017 -1019 0
-653 -1017 0
-653 1019 0
652 654 -655 0
-652 -654 0
-654 655 0
640 655 656 0
-640 -655 0
-655 -656 0
656 1038 -1040 0
-656 -1038 0
-656 1040 0
656 657 -834 0
657 -834 1121 0
-657 834 0
-656 -657 -1121 0
658 -1216 1223 0
-658 1216 0
-658 -1223 0
659 660 -1216 0
647 649 659 0
649 659 660 0
647 659 -1216 0
-649 -659 1216 0
-647 -659 -660 0
635 660 -1216 -1223 0
-660 1216 0
-660 1223 0
-635 -660 0
661 -662 1129 0
661 662 -1129 0
-661 -662 -1129 0
-661 662 1129 0
662 -663 -637 0
662 671 -637 0
637 -662 0
-662 663 -671 0
646 -658 663 -664 0
-646 -658 663 -1092 0
658 -663 0
646 -663 664 0
-646 -663 1092 0
-648 664 -1091 0
648 664 -665 0
-648 -664 1091 0
648 -664 665 0
665 666 631 670 0
665 666 631 -669 0
-631 -665 0
-665 -666 0
-665 669 -670 0
666 667 -834 1090 0
656 666 667 -834 0
-666 834 0
-666 -667 0
-656 -666 -1090 0
-655 667 668 0
655 -667 0
-667 -668 0
-653 668 1089 0
616 653 668 0
653 668 833 0
-653 -668 -1089 0
653 -668 -616 -833 0
669 -833 -616 1195 0
653 669 -616 -833 0
-669 833 0
616 -669 0
-653 -669 -1195 0
670 834 1195 0
670 834 1089 0
653 670 834 0
-670 -834 0
-653 -670 -1089 -1195 0
664 671 -1216 0
660 665 671 0
664 665 671 0
660 671 -1216 0
-660 -664 -671 0
-665 -671 1216 0
672 -1530 -673 0
672 -682 -673 0
-672 673 0
-672 682 1530 0
673 -674 -637 0
673 681 -637 0
637 -673 0
674 -681 -673 0
646 -658 674 -675 0
-646 -658 674 -1096 0
658 -674 0
646 -674 675 0
-646 -674 1096 0
-648 675 -1095 0
648 675 -676 0
-648 -675 1095 0
648 -675 676 0
676 677 631 680 0
676 677 631 -679 0
-631 -676 0
-676 -677 0
-676 679 -680 0
677 -678 834 -1195 0
616 677 834 1195 0
-677 -834 0
-677 678 -1195 0
-677 1195 -616 0
616 653 678 0
-653 678 1093 0
653 -678 -616 0
-653 -678 -1093 0
-655 678 679 0
655 -679 0
-678 -679 0
656 680 -834 0
680 -834 1094 0
-680 834 0
-656 -680 -1094 0
675 681 -1216 0
660 676 681 0
675 676 681 0
660 681 -1216 0
-660 -675 -681 0
-676 -681 1216 0
682 686 -693 0
682 -691 -693 0
682 -683 -693 0
-682 693 0
-682 683 -686 691 0
683 -685 834 -1195 0
683 684 834 1195 0
-683 -834 0
-683 685 -1195 0
-683 -684 1195 0
684 -1102 -616 0
-684 1102 0
616 -684 0
-653 685 1103 0
653 684 685 0
-653 -685 -1103 0
653 -684 -685 0
686 687 631 0
-631 -686 0
-686 -687 0
-648 687 -1216 0
687 688 -1216 0
-687 1216 0
648 -687 -688 0
688 689 690 0
636 688 689 -1216 0
-688 -689 0
-688 -690 1216 0
-636 -688 -690 0
-646 689 1223 0
-689 -1223 0
646 -689 0
690 -1223 -1224 1225 0
-690 1223 0
-690 1224 0
-690 -1225 0
691 692 -834 1104 0
656 691 692 -834 0
-691 834 0
-691 -692 0
-656 -691 -1104 0
-655 685 692 0
655 -692 0
-685 -692 0
646 693 694 0
658 693 694 0
693 694 1106 0
-693 -694 0
-646 -658 -693 -1106 0
-648 694 -695 -1105 0
-694 1105 0
648 -694 0
-694 695 0
-688 695 -1216 0
-695 1216 0
688 -695 0
696 -698 -701 1530 0
696 -697 -698 -701 0
-696 701 0
-696 698 0
-696 697 -1530 0
682 697 -637 0
637 -697 0
-682 -697 0
698 -699 1510 0
698 699 -1510 0
-698 -699 -1510 0
-698 699 1510 0
699 -700 639 -630 -617 0
-699 700 0
617 -699 0
630 -699 0
-639 -699 0
700 -1080 1082 0
-700 1080 0
-700 -1082 0
701 -702 -709 0
701 704 -707 -709 0
-701 709 0
702 -704 -701 0
702 707 -701 0
-648 702 -1216 0
702 -703 -1216 0
-702 1216 0
648 -702 703 0
-646 703 -1110 1223 0
-703 1110 0
-703 -1223 0
646 -703 0
704 -706 834 -1195 0
704 705 834 1195 0
-704 -834 0
-704 706 -1195 0
-704 -705 1195 0
705 -832 -616 0
-705 832 0
616 -705 0
-653 706 1107 0
653 705 706 0
-653 -706 -1107 0
653 -705 -706 0
707 708 631 0
-655 706 631 707 0
-631 -707 0
655 -707 -708 0
-706 -707 -708 0
656 708 -834 0
708 -834 1108 0
-708 834 0
-656 -708 -1108 0
709 710 -630 717 -718 0
-709 718 0
-709 -717 0
630 -709 0
-709 -710 0
711 715 710 0
617 710 711 0
-714 715 -617 710 0
617 -710 -711 0
-710 -715 -617 0
-710 -711 714 0
711 712 1067 0
711 -834 1067 0
-711 -1067 0
-711 -712 834 0
712 -713 1195 1196 1199 0
-712 713 0
-712 -1199 0
-712 -1195 0
-712 -1196 0
713 1197 1198 0
-713 -1197 0
-713 -1198 0
-700 714 1088 0
-714 -1088 0
700 -714 0
711 715 716 -1086 0
700 711 715 716 0
-715 -716 0
-711 -715 0
-700 -715 1086 0
-626 716 1080 0
716 837 1080 1117 0
-716 -1080 0
-716 -837 626 0
-716 -1117 626 0
-687 688 703 717 0
-687 703 717 1109 0
687 -717 0
-703 -717 0
-688 -717 -1109 0
718 -719 -1067 0
718 -719 -1118 0
-712 718 -719 0
-718 719 0
712 1067 -718 1118 0
719 834 -880 0
640 719 720 -880 0
-719 880 0
-720 -834 -719 0
-640 -834 -719 0
720 1067 1118 0
-720 -1067 0
-720 -1118 0
721 -722 -1539 0
721 722 1539 0
-721 -722 1539 0
-721 722 -1539 0
722 728 -637 0
722 723 -637 -726 0
637 -722 0
-722 -723 -728 0
-722 726 -728 0
723 -725 834 -1195 0
723 724 834 1195 0
-723 -834 0
-723 725 -1195 0
-723 -724 1195 0
724 -1111 -616 0
-724 1111 0
616 -724 0
-653 725 1112 0
653 724 725 0
-653 -725 -1112 0
653 -724 -725 0
-686 726 727 0
-655 -686 725 726 0
686 -726 0
655 -726 -727 0
-725 -726 -727 0
656 727 -834 0
727 -834 1113 0
-727 834 0
-656 -727 -1113 0
646 728 729 0
658 728 729 0
728 729 1115 0
-728 -729 0
-646 -658 -728 -1115 0
-648 -695 729 -1114 0
-729 1114 0
648 -729 0
695 -729 0
730 -731 741 -1525 0
730 731 741 1525 0
-730 -741 0
-730 731 -1525 0
-730 -731 1525 0
731 -732 -637 0
731 740 -637 0
637 -731 0
-731 732 -740 0
646 -658 732 -733 0
-646 -658 732 -1101 0
658 -732 0
646 -732 733 0
-646 -732 1101 0
-648 733 -1100 0
648 733 -734 0
-648 -733 1100 0
648 -733 734 0
734 735 631 739 0
734 735 631 -738 0
-631 -734 0
-734 -735 0
-734 738 -739 0
735 -737 834 -1195 0
735 736 834 1195 0
-735 -834 0
-735 737 -1195 0
-735 -736 1195 0
736 -1097 -616 0
-736 1097 0
616 -736 0
-653 737 1098 0
653 736 737 0
-653 -737 -1098 0
653 -736 -737 0
-655 737 738 0
655 -738 0
-737 -738 0
656 739 -834 0
739 -834 1099 0
-739 834 0
-656 -739 -1099 0
733 740 -1216 0
660 734 740 0
733 734 740 0
660 740 -1216 0
-660 -733 -740 0
-734 -740 1216 0
-644 741 1547 0
-741 -1547 0
644 -741 0
743 -615 742 0
-644 2331 742 -615 0
644 -2331 742 -615 0
615 -742 0
644 -742 -743 2331 0
-644 -742 -743 -2331 0
-731 743 -744 -2309 0
731 743 -744 2309 0
-743 744 0
731 -2309 -743 0
-731 2309 -743 0
662 744 -745 -746 1913 0
-662 744 -745 -746 -1913 0
-744 746 0
662 -1913 -744 0
-744 745 0
-662 1913 -744 0
745 -701 -673 0
673 -745 0
701 -745 0
746 -747 -748 2323 0
-722 746 -747 -748 0
-746 748 0
-746 747 0
722 -2323 -746 0
-699 747 2294 0
699 747 -2294 0
-699 -2294 -747 0
699 2294 -747 0
-697 722 748 -2314 0
697 722 748 2314 0
697 748 2314 -2323 0
-697 748 -2314 -2323 0
697 -2314 -748 0
-697 2314 -748 0
-722 2323 -748 0
-731 749 -615 0
642 749 -615 0
-741 749 -615 0
615 -749 0
-642 731 741 -749 0
750 752 -615 0
643 750 -615 0
750 751 -615 0
615 -750 0
-643 -750 -751 -752 0
-696 741 751 0
696 -751 0
-741 -751 0
-672 722 752 0
672 -752 0
-722 -752 0
-697 753 -615 0
753 754 -615 0
-741 753 -615 0
615 -753 0
697 741 -753 -754 0
-643 754 -755 0
643 -754 0
-754 755 0
-698 755 -745 0
698 -755 0
745 -755 0
-644 756 -615 0
756 757 -615 0
615 -756 0
644 -756 -757 0
661 -755 757 0
-661 -757 0
755 -757 0
-662 758 -615 0
755 758 -615 0
615 -758 0
662 -755 -758 0
745 759 -615 0
699 759 -615 0
615 -759 0
-699 -759 -745 0
745 760 -615 0
615 -760 0
-745 -760 0
731 761 -615 0
642 761 -615 0
-741 761 -615 0
615 -761 0
-642 -731 741 -761 0
762 763 -615 0
643 762 -615 0
751 762 -615 0
615 -762 0
-643 -751 -762 -763 0
-672 -722 763 0
672 -763 0
722 -763 0
-741 764 -615 0
754 764 -615 0
697 764 -615 0
615 -764 0
-697 741 -754 -764 0
757 765 -615 0
644 765 -615 0
615 -765 0
-644 -757 -765 0
755 766 -615 0
662 766 -615 0
615 -766 0
-662 -755 -766 0
-699 767 -615 0
745 767 -615 0
615 -767 0
699 -767 -745 0
1 614 0
-1 -614 0
2 614 0
-2 -614 0
3 742 0
-3 -742 0
89 -749 0
-89 749 0
90 -750 0
-90 750 0
91 -753 0
-91 753 0
92 -756 0
-92 756 0
97 -758 0
-97 758 0
110 -759 0
-110 759 0
210 -760 0
-210 760 0
394 -761 0
-394 761 0
395 -762 0
-395 762 0
396 -764 0
-396 764 0
397 -765 0
-397 765 0
402 -766 0
-402 766 0
415 -767 0
-415 767 0
515 -760 0
-515 760 0
-89 -394 2422 0
89 -2422 0
394 -2422 0
89 -1525 0
-89 1525 0
-90 -395 2423 0
90 -2423 0
395 -2423 0
90 -1539 0
-90 1539 0
-91 -396 2424 0
91 -2424 0
396 -2424 0
91 -1530 0
-91 1530 0
-92 -397 2425 0
92 -2425 0
397 -2425 0
92 -1547 0
-92 1547 0
-97 -402 2430 0
97 -2430 0
402 -2430 0
97 -1129 0
-97 1129 0
-110 -415 2443 0
110 -2443 0
415 -2443 0
110 -1510 0
-110 1510 0
-210 -515 2543 0
210 -2543 0
515 -2543 0
210 -1366 0
-210 1366 0
-1 0
-2 0
3 0
4 0
5 0
6 0
7 0
8 0
9 0
10 0
11 0
12 0
13 0
14 0
15 0
16 0
17 0
18 0
19 0
20 0
21 0
22 0
23 0
24 0
25 0
26 0
27 0
28 0
29 0
30 0
31 0
32 0
33 0
34 0
35 0
36 0
37 0
38 0
39 0
40 0
41 0
42 0
43 0
44 0
45 0
46 0
47 0
48 0
49 0
50 0
51 0
52 0
53 0
54 0
55 0
56 0
57 0
58 0
59 0
60 0
61 0
62 0
63 0
64 0
65 0
66 0
67 0
68 0
69 0
70 0
71 0
72 0
73 0
74 0
75 0
76 0
77 0
78 0
79 0
80 0
81 0
82 0
83 0
84 0
85 0
86 0
87 0
88 0
93 0
94 0
95 0
96 0
98 0
99 0
100 0
101 0
102 0
103 0
104 0
105 0
106 0
107 0
108 0
109 0
111 0
112 0
113 0
114 0
115 0
116 0
117 0
118 0
119 0
120 0
121 0
122 0
123 0
124 0
125 0
126 0
127 0
128 0
129 0
130 0
131 0
132 0
133 0
134 0
135 0
136 0
137 0
138 0
139 0
140 0
141 0
142 0
143 0
144 0
145 0
146 0
147 0
148 0
149 0
150 0
151 0
152 0
153 0
154 0
155 0
156 0
-157 0
158 0
159 0
160 0
161 0
162 0
163 0
164 0
165 0
166 0
167 0
168 0
169 0
170 0
171 0
172 0
173 0
174 0
175 0
176 0
177 0
178 0
179 0
180 0
181 0
182 0
183 0
184 0
185 0
186 0
187 0
188 0
189 0
190 0
191 0
192 0
193 0
194 0
195 0
196 0
197 0
198 0
199 0
200 0
201 0
202 0
203 0
204 0
205 0
206 0
207 0
208 0
209 0
-210 0
211 0
212 0
213 0
214 0
215 0
216 0
217 0
218 0
219 0
-220 0
221 0
222 0
223 0
224 0
225 0
226 0
227 0
228 0
229 0
230 0
231 0
232 0
233 0
234 0
235 0
236 0
237 0
238 0
239 0
240 0
241 0
242 0
243 0
244 0
245 0
246 0
247 0
-248 0
249 0
250 0
251 0
252 0
253 0
254 0
255 0
256 0
257 0
258 0
259 0
260 0
261 0
262 0
263 0
264 0
265 0
266 0
267 0
268 0
269 0
270 0
271 0
272 0
273 0
274 0
275 0
276 0
277 0
278 0
279 0
280 0
281 0
282 0
283 0
284 0
285 0
286 0
287 0
288 0
289 0
290 0
291 0
292 0
293 0
294 0
295 0
296 0
297 0
298 0
299 0
300 0
301 0
302 0
303 0
304 0
305 0
306 0
307 0
308 0
-309 0
-310 0
-311 0
-312 0
-313 0
-314 0
-315 0
-316 0
-317 0
-318 0
-319 0
-320 0
-321 0
-322 0
-323 0
-324 0
-325 0
-326 0
-327 0
-328 0
-329 0
-330 0
-331 0
-332 0
-333 0
-334 0
-335 0
-336 0
-337 0
-338 0
-339 0
-340 0
-341 0
-342 0
-343 0
-344 0
-345 0
-346 0
-347 0
-348 0
-349 0
-350 0
-351 0
-352 0
-353 0
-354 0
-355 0
-356 0
-357 0
-358 0
-359 0
-360 0
-361 0
-362 0
-363 0
-364 0
-365 0
-366 0
-367 0
-368 0
-369 0
-370 0
-371 0
-372 0
-373 0
-374 0
-375 0
-376 0
-377 0
-378 0
-379 0
-380 0
-381 0
-382 0
-383 0
-384 0
-385 0
-386 0
-387 0
-388 0
-389 0
-390 0
-391 0
-392 0
-393 0
-398 0
-399 0
-400 0
-401 0
-403 0
-404 0
-405 0
-406 0
-407 0
-408 0
-409 0
-410 0
-411 0
-412 0
-413 0
-414 0
-416 0
-417 0
-418 0
-419 0
-420 0
-421 0
-422 0
-423 0
-424 0
-425 0
-426 0
-427 0
-428 0
-429 0
-430 0
-431 0
-432 0
-433 0
-434 0
-435 0
-436 0
-437 0
-438 0
-439 0
-440 0
-441 0
-442 0
-443 0
-444 0
-445 0
-446 0
-447 0
-448 0
-449 0
-450 0
-451 0
-452 0
-453 0
-454 0
-455 0
-456 0
-457 0
-458 0
-459 0
-460 0
-461 0
462 0
-463 0
-464 0
-465 0
-466 0
-467 0
-468 0
-469 0
-470 0
-471 0
-472 0
-473 0
-474 0
-475 0
-476 0
-477 0
-478 0
-479 0
-480 0
-481 0
-482 0
-483 0
-484 0
-485 0
-486 0
-487 0
-488 0
-489 0
-490 0
-491 0
-492 0
-493 0
-494 0
-495 0
-496 0
-497 0
-498 0
-499 0
-500 0
-501 0
-502 0
-503 0
-504 0
-505 0
-506 0
-507 0
-508 0
-509 0
-510 0
-511 0
-512 0
-513 0
-514 0
-515 0
-516 0
-517 0
-518 0
-519 0
-520 0
-521 0
-522 0
-523 0
-524 0
525 0
-526 0
-527 0
-528 0
-529 0
-530 0
-531 0
-532 0
-533 0
-534 0
-535 0
-536 0
-537 0
-538 0
-539 0
-540 0
-541 0
-542 0
-543 0
-544 0
-545 0
-546 0
-547 0
-548 0
-549 0
-550 0
-551 0
-552 0
553 0
-554 0
-555 0
-556 0
-557 0
-558 0
-559 0
-560 0
-561 0
-562 0
-563 0
-564 0
-565 0
-566 0
-567 0
-568 0
-569 0
-570 0
-571 0
-572 0
-573 0
-574 0
-575 0
-576 0
-577 0
-578 0
-579 0
-580 0
-581 0
-582 0
-583 0
-584 0
-585 0
-586 0
-587 0
-588 0
-589 0
-590 0
-591 0
-592 0
-593 0
-594 0
-595 0
-596 0
-597 0
-598 0
-599 0
-600 0
-601 0
-602 0
-603 0
-604 0
-605 0
-606 0
-607 0
-608 0
-609 0
-610 0
-611 0
-612 0
-613 0
614 0
615 0
616 0
617 0
-618 0
-622 0
-626 0
630 0
-631 0
637 0
638 0
-639 0
641 0
673 0
701 0
709 0
-710 0
-717 0
718 0
719 0
-742 0
743 0
744 0
745 0
746 0
747 0
748 0
-760 0
773 0
822 0
880 0
921 0
950 0
979 0
-1124 0
1125 0
1126 0
1127 0
1128 0
1130 0
1131 0
1132 0
1133 0
1134 0
1135 0
1136 0
1137 0
1138 0
1139 0
1140 0
1141 0
1142 0
1143 0
1144 0
1145 0
1146 0
1147 0
1148 0
1149 0
1150 0
1151 0
1152 0
1153 0
1154 0
1155 0
1156 0
1157 0
1158 0
1159 0
1160 0
1161 0
1162 0
1163 0
1164 0
1165 0
1166 0
1167 0
1168 0
1169 0
1170 0
1171 0
1172 0
1173 0
1174 0
1175 0
1176 0
1177 0
1178 0
1179 0
1180 0
1181 0
1182 0
1183 0
1184 0
1185 0
1186 0
1231 0
1260 0
1289 0
-1310 0
1311 0
1312 0
1313 0
1314 0
1315 0
1316 0
1317 0
1318 0
1319 0
1320 0
1321 0
1322 0
1323 0
1324 0
1325 0
1326 0
1327 0
1328 0
1329 0
1330 0
1331 0
1332 0
1333 0
1334 0
1335 0
1336 0
1337 0
-1338 0
1339 0
1340 0
1341 0
1342 0
1343 0
1344 0
1345 0
1346 0
1347 0
1348 0
1349 0
1350 0
1351 0
1352 0
1353 0
1354 0
1355 0
1356 0
1357 0
1358 0
1359 0
1360 0
1361 0
1362 0
1363 0
1364 0
1365 0
-1366 0
1367 0
1368 0
1369 0
1370 0
1371 0
1372 0
1373 0
1374 0
1375 0
1376 0
1377 0
1378 0
1379 0
1380 0
1381 0
1382 0
1383 0
1384 0
1385 0
1386 0
1387 0
1388 0
1389 0
1390 0
1391 0
1392 0
1393 0
1394 0
1395 0
1396 0
1397 0
1398 0
1399 0
1400 0
1401 0
1402 0
1403 0
1404 0
1405 0
1406 0
1407 0
1408 0
1409 0
1410 0
1411 0
1412 0
1413 0
1414 0
1415 0
1416 0
1417 0
1418 0
1419 0
1420 0
1421 0
1422 0
1423 0
1424 0
1425 0
1426 0
1427 0
1428 0
1429 0
1430 0
1431 0
1432 0
1433 0
1434 0
1435 0
1436 0
1437 0
1438 0
1439 0
1440 0
1441 0
1442 0
1443 0
1444 0
1445 0
1446 0
1447 0
1448 0
1449 0
1450 0
1451 0
1452 0
1453 0
1454 0
1455 0
1456 0
1457 0
1458 0
1459 0
1460 0
1461 0
1462 0
1463 0
1464 0
1465 0
1466 0
1467 0
1468 0
1469 0
1470 0
1471 0
1472 0
1473 0
1474 0
1475 0
1476 0
1477 0
1478 0
1479 0
1480 0
1481 0
1482 0
1483 0
1484 0
1485 0
1486 0
1487 0
1488 0
1489 0
1490 0
1491 0
1492 0
1493 0
1494 0
1495 0
1496 0
1497 0
1498 0
1499 0
1500 0
1501 0
1502 0
1503 0
1504 0
1505 0
1506 0
1507 0
1508 0
1509 0
1511 0
1512 0
1513 0
1514 0
1515 0
1516 0
1517 0
1518 0
1519 0
1520 0
1521 0
1522 0
1523 0
1524 0
1526 0
1527 0
1528 0
1529 0
1531 0
1532 0
1533 0
1534 0
1535 0
1536 0
1537 0
1538 0
1540 0
1541 0
1542 0
1543 0
1544 0
1545 0
1546 0
1548 0
1549 0
1550 0
1551 0
2336 0
-2337 0
-2338 0
-2339 0
-2340 0
-2341 0
-2342 0
-2343 0
-2344 0
-2345 0
-2346 0
-2347 0
-2348 0
-2349 0
-2350 0
-2351 0
-2352 0
-2353 0
-2354 0
-2355 0
-2356 0
-2357 0
-2358 0
-2359 0
-2360 0
-2361 0
-2362 0
-2363 0
-2364 0
-2365 0
-2366 0
-2367 0
-2368 0
-2369 0
-2370 0
-2371 0
-2372 0
-2373 0
-2374 0
-2375 0
-2376 0
-2377 0
-2378 0
-2379 0
-2380 0
-2381 0
-2382 0
-2383 0
-2384 0
-2385 0
-2386 0
-2387 0
-2388 0
-2389 0
-2390 0
-2391 0
-2392 0
-2393 0
-2394 0
-2395 0
-2396 0
-2397 0
-2398 0
-2399 0
-2400 0
-2401 0
-2402 0
-2403 0
-2404 0
-2405 0
-2406 0
-2407 0
-2408 0
-2409 0
-2410 0
-2411 0
-2412 0
-2413 0
-2414 0
-2415 0
-2416 0
-2417 0
-2418 0
-2419 0
-2420 0
-2421 0
-2426 0
-2427 0
-2428 0
-2429 0
-2431 0
-2432 0
-2433 0
-2434 0
-2435 0
-2436 0
-2437 0
-2438 0
-2439 0
-2440 0
-2441 0
-2442 0
-2444 0
-2445 0
-2446 0
-2447 0
-2448 0
-2449 0
-2450 0
-2451 0
-2452 0
-2453 0
-2454 0
-2455 0
-2456 0
-2457 0
-2458 0
-2459 0
-2460 0
-2461 0
-2462 0
-2463 0
-2464 0
-2465 0
-2466 0
-2467 0
-2468 0
-2469 0
-2470 0
-2471 0
-2472 0
-2473 0
-2474 0
-2475 0
-2476 0
-2477 0
-2478 0
-2479 0
-2480 0
-2481 0
-2482 0
-2483 0
-2484 0
-2485 0
-2486 0
-2487 0
-2488 0
-2489 0
-2490 0
-2491 0
-2492 0
-2493 0
-2494 0
-2495 0
-2496 0
-2497 0
-2498 0
-2499 0
-2500 0
-2501 0
-2502 0
-2503 0
-2504 0
-2505 0
-2506 0
-2507 0
-2508 0
-2509 0
-2510 0
-2511 0
-2512 0
-2513 0
-2514 0
-2515 0
-2516 0
-2517 0
-2518 0
-2519 0
-2520 0
-2521 0
-2522 0
-2523 0
-2524 0
-2525 0
-2526 0
-2527 0
-2528 0
-2529 0
-2530 0
-2531 0
-2532 0
-2533 0
-2534 0
-2535 0
-2536 0
-2537 0
-2538 0
-2539 0
-2540 0
-2541 0
-2542 0
-2543 0
-2544 0
-2545 0
-2546 0
-2547 0
-2548 0
-2549 0
-2550 0
-2551 0
-2552 0
-2553 0
-2554 0
-2555 0
-2556 0
-2557 0
-2558 0
-2559 0
-2560 0
-2561 0
-2562 0
-2563 0
-2564 0
-2565 0
-2566 0
-2567 0
-2568 0
-2569 0
-2570 0
-2571 0
-2572 0
-2573 0
-2574 0
-2575 0
-2576 0
-2577 0
-2578 0
-2579 0
-2580 0
-2581 0
-2582 0
-2583 0
-2584 0
-2585 0
-2586 0
-2587 0
-2588 0
-2589 0
-2590 0
-2591 0
-2592 0
-2593 0
-2594 0
-2595 0
-2596 0
-2597 0
-2598 0
-2599 0
-2600 0
-2601 0
-2602 0
-2603 0
-2604 0
-2605 0
-2606 0
-2607 0
-2608 0
-2609 0
-2610 0
-2611 0
-2612 0
-2613 0
-2614 0
-2615 0
-2616 0
-2617 0
-2618 0
-2619 0
-2620 0
-2621 0
-2622 0
-2623 0
-2624 0
-2625 0
-2626 0
-2627 0
-2628 0
-2629 0
-2630 0
-2631 0
-2632 0
-2633 0
-2634 0
-2635 0
-2636 0
-2637 0
-2638 0
-2639 0
-2640 0
-2641 0
-2059 0
-2060 0
-2061 0
-2062 0
-2063 0
-2064 0
-2065 0
-2066 0
-2067 0
-2068 0
-2069 0
-2070 0
-2071 0
-2072 0
-2073 0
-2074 0
-2075 0
-2076 0
-2077 0
-2078 0
-2079 0
-2080 0
-2081 0
-2082 0
-2083 0
-2084 0
-2085 0
-2086 0
-2087 0
-2088 0
-2089 0
-2090 0
-2091 0
-2092 0
-2093 0
-1697 0
-1698 0
-1699 0
-1700 0
-1701 0
-1702 0
-1703 0
-1704 0
-1705 0
-1706 0
-1707 0
-1708 0
-1709 0
-1710 0
-1711 0
-1712 0
-1713 0
-1714 0
-1715 0
-1716 0
-1717 0
-1718 0
-1719 0
-1720 0
-1721 0
-1722 0
-1723 0
-1724 0
-1725 0
-1726 0
-1727 0
-1728 0
-1729 0
-1730 0
-1731 0
-1732 0
-1733 0
-1734 0
-1735 0
-1736 0
-1737 0
-1738 0
-1739 0
-1740 0
-1741 0
-1742 0
-1743 0
-1744 0
-1745 0
-1746 0
-1747 0
-1748 0
-1749 0
-1750 0
-1751 0
-1752 0
-1753 0
-1754 0
-1755 0
-1756 0
-1757 0
-1758 0
-1759 0
-1760 0
-1761 0
-1762 0
-1763 0
-1764 0
-1765 0
-1766 0
-1767 0
-1768 0
-1769 0
-1770 0
-1771 0
-1772 0
-1773 0
-1774 0
-1775 0
-1776 0
-1777 0
-1778 0
-1779 0
-1780 0
-1781 0
-1782 0
-1783 0
-1856 0
-1857 0
-1858 0
-1859 0
-1860 0
-1861 0
-1862 0
-1863 0
-1864 0
-1865 0
-1866 0
-1867 0
-1868 0
-1869 0
-1870 0
-1871 0
-1872 0
-1618 0
-1692 0
-1693 0
-1694 0
-1695 0
-1696 0
-1621 0
-1622 0
-1623 0
-1624 0
-1625 0
-1626 0
-1627 0
-1628 0
-1629 0
-1630 0
-1873 0
-1631 0
-1874 0
-1632 0
-1633 0
-1875 0
-1634 0
-1876 0
-1635 0
-1636 0
-1637 0
-1638 0
-1639 0
-1640 0
-1641 0
-1573 0
-1574 0
-1575 0
-1576 0
-1577 0
-1578 0
-1877 0
-1878 0
-1579 0
-1580 0
-1581 0
-1879 0
-1582 0
-1583 0
-1880 0
-1619 0
-1584 0
-1585 0
-1586 0
-1587 0
-1588 0
-1589 0
-1590 0
-1591 0
-1881 0
-1592 0
-1593 0
-1552 0
-1553 0
-1554 0
-1882 0
-1555 0
-1883 0
-1556 0
-1884 0
-1557 0
-1885 0
-1558 0
-1559 0
-1560 0
-1561 0
-1562 0
-1563 0
-1564 0
-1565 0
-1566 0
-1567 0
-1568 0
-1569 0
-1886 0
-1570 0
-1571 0
-1572 0
-1594 0
-1595 0
-1596 0
-1887 0
-1888 0
-1597 0
-1598 0
-1889 0
-1599 0
-1890 0
-1600 0
-1601 0
-1602 0
-1603 0
-1620 0
-1604 0
-1605 0
-1606 0
-1607 0
-1608 0
-1609 0
-1610 0
-1611 0
-1612 0
-1613 0
-1614 0
-1827 0
-1828 0
-1891 0
-1829 0
-1892 0
-1830 0
-1893 0
-1831 0
-1832 0
-1894 0
-1833 0
-1834 0
-1835 0
-1836 0
-1837 0
-1838 0
-1839 0
-1840 0
-1841 0
-1842 0
-1843 0
-1895 0
-1844 0
-1845 0
-1846 0
-1896 0
-1847 0
-1897 0
-1848 0
-1898 0
-1899 0
-1849 0
-1850 0
-1851 0
-1852 0
-1853 0
-1854 0
-1855 0
-1615 0
-1784 0
-1785 0
-1786 0
-1787 0
-1788 0
-1789 0
-1900 0
-1901 0
-1790 0
-1791 0
-1792 0
-1793 0
-1794 0
-1902 0
-1795 0
-1796 0
-1797 0
-1798 0
-1799 0
-1800 0
-1801 0
-1802 0
-1803 0
-1903 0
-1804 0
-1805 0
-1806 0
-1807 0
-1808 0
-1904 0
-1905 0
-1809 0
-1810 0
-1906 0
-1811 0
-1812 0
-1907 0
-1813 0
-1814 0
-1815 0
-1816 0
-1817 0
-1818 0
-1819 0
-1820 0
-1821 0
-1822 0
-1823 0
-1824 0
-1825 0
-1826 0
-1971 0
-1972 0
-1973 0
-1974 0
-1975 0
-1976 0
-1977 0
-1978 0
-1979 0
-1980 0
-1981 0
-1982 0
-1983 0
-1984 0
-1985 0
-1986 0
-1987 0
-1988 0
-1989 0
-1990 0
-1991 0
-1992 0
-1993 0
-1994 0
-1995 0
-1996 0
-1997 0
-1998 0
-1616 0
-1999 0
-2000 0
-2001 0
-2002 0
-2003 0
-2004 0
-2005 0
-2006 0
-2007 0
-2008 0
-2009 0
-2010 0
-2011 0
-2012 0
-2013 0
-1642 0
-1643 0
-1644 0
-1645 0
-1646 0
-1647 0
-1648 0
-1649 0
-1650 0
-1651 0
-1652 0
-1653 0
-1654 0
-1655 0
-1656 0
-1657 0
-1658 0
-1659 0
-1660 0
-1661 0
-1662 0
-1663 0
-1664 0
-1665 0
-1617 0
-1666 0
-1667 0
-1668 0
-1669 0
-1670 0
-1671 0
-1672 0
-1673 0
-1674 0
-1675 0
-1676 0
-1677 0
-1678 0
-1679 0
-1680 0
-1681 0
-1682 0
-1683 0
-1684 0
-1685 0
-1686 0
-1687 0
-1688 0
-1689 0
-1690 0
-1691 0
-2014 0
-2015 0
-2016 0
-2017 0
-2018 0
-2019 0
-2020 0
-2021 0
-2022 0
-2023 0
-2024 0
-2025 0
-2026 0
-2027 0
-2028 0
-2029 0
-2030 0
-2031 0
-2032 0
-2033 0
-2034 0
-2035 0
-2036 0
-2037 0
-2038 0
-2039 0
-2040 0
-2041 0
-2042 0
-2043 0
-2044 0
-2045 0
-2046 0
-2047 0
-2048 0
-2049 0
-2050 0
-2051 0
-2052 0
-2053 0
-2054 0
-2055 0
-2056 0
-2057 0
-2058 0

